Version identifier: 20.1.0.0 | 2020-11-10 | 9bedb6d68
CPXPARAM_LPMethod                                3
CPXPARAM_QPMethod                                3
CPXPARAM_Threads                                 4
CPXPARAM_MIP_Strategy_StartAlgorithm             3
CPXPARAM_Emphasis_MIP                            1
CPXPARAM_MIP_Limits_Solutions                    1
CPXPARAM_TimeLimit                               43198
Tried aggregator 1 time.
MIP Presolve eliminated 1876 rows and 0 columns.
Reduced MIP has 8305 rows, 496 columns, and 26163 nonzeros.
Reduced MIP has 496 binaries, 0 generals, 0 SOSs, and 0 indicators.
Presolve time = 0,03 sec. (12,66 ticks)
Probing time = 0,08 sec. (0,55 ticks)
Tried aggregator 1 time.
Detecting symmetries...
Reduced MIP has 8305 rows, 496 columns, and 26163 nonzeros.
Reduced MIP has 496 binaries, 0 generals, 0 SOSs, and 0 indicators.
Presolve time = 0,03 sec. (12,13 ticks)
Probing time = 0,00 sec. (1,26 ticks)
MIP emphasis: integer feasibility.
MIP search method: dynamic search.
Parallel mode: deterministic, using up to 4 threads.
Root relaxation solution time = 1,63 sec. (549,43 ticks)

        Nodes                                         Cuts/
   Node  Left     Objective  IInf  Best Integer    Best Bound    ItCnt     Gap

      0     0       72,0000   155                     72,0000     2399         
*     0+    0                           72,0000       72,0000             0,00%
      0     0        cutoff             72,0000       72,0000     2399    0,00%
Elapsed time = 1,91 sec. (624,86 ticks, tree = 0,01 MB, solutions = 1)

Root node processing (before b&c):
  Real time             =    1,91 sec. (624,91 ticks)
Parallel b&c, 4 threads:
  Real time             =    0,00 sec. (0,00 ticks)
  Sync time (average)   =    0,00 sec.
  Wait time (average)   =    0,00 sec.
                          ------------
Total (root+branch&cut) =    1,91 sec. (624,91 ticks)
